c Sudoku solution
p cnf 729 0
132 0
154 0
216 0
228 0
255 0
261 0
317 0
388 0
453 0
495 0
579 0
612 0
635 0
649 0
677 0
691 0
769 0
359 0
787 0
798 0
478 0
866 0
889 0
936 0
776 0
943 0
994 0
811 0
538 0
918 0
929 0
722 0
751 0
744 0
733 0
715 0
837 0
824 0
427 0
626 0
683 0
664 0
462 0
658 0
556 0
441 0
521 0
513 0
486 0
584 0
592 0
119 0
234 0
331 0
299 0
197 0
247 0
374 0
325 0
123 0
168 0
363 0
342 0
146 0
396 0
414 0
439 0
545 0
567 0
848 0
965 0
957 0
852 0
893 0
875 0
273 0
282 0
972 0
981 0
171 0
185 0
